TYPE : Vertex Cover
DIMENSION: 34
EDGE_DATA_SECTION:
0 21
0 27
1 3
1 5
1 9
1 12
1 21
1 25
2 11
2 20
2 28
3 4
3 6
3 12
3 19
3 22
3 27
3 29
3 31
4 19
4 27
4 30
4 33
5 9
5 15
5 32
6 8
6 12
6 13
6 22
6 24
6 28
7 23
8 9
8 12
8 14
8 24
8 33
9 12
9 28
9 32
10 19
10 22
10 27
10 32
11 19
11 24
11 33
12 14
12 15
12 17
12 18
12 28
12 31
12 33
13 17
13 18
13 20
14 24
14 26
15 31
16 17
16 23
16 24
16 31
17 22
17 25
17 26
18 25
18 28
21 23
21 32
21 33
23 25
23 27
24 26
25 29
26 29
26 32
27 31
27 33
29 32
30 32
-1
VERTEX_DEGREE:
2.0 6.0 3.0 9.0 5.0 4.0 7.0 1.0 6.0 6.0 4.0 4.0 12.0 4.0 4.0 3.0 4.0 6.0 4.0 4.0 2.0 5.0 4.0 5.0 6.0 5.0 5.0 7.0 5.0 4.0 2.0 5.0 7.0 6.0
VERTEX_COVER:
0 1 2 3 4 5 8 12 13 17 19 22 23 24 25 26 27 28 31 32 33
EOF
